[[87, 95, 86, 76, 85, 84, 94, 93, 92, 91, 83, 82, 73, 75, 74, 66, 65, 64], [55, 56, 57, 58, 59, 49, 60, 51, 50, 41, 40, 39, 48, 47, 46, 38, 37, 29, 28, 19, 30, 31, 21], [22, 23, 13, 20, 11, 10, 2, 12, 3, 4, 14, 5, 6, 7, 8, 9, 15], [16, 24, 25, 17, 18, 26, 27, 35, 36, 44, 34, 33, 32, 42, 43, 45, 54, 52, 53], [63, 61, 62, 72, 81, 71, 80, 70, 69, 67, 68, 77, 78, 79, 88, 89, 90, 99, 98, 97, 96]]